NAME : mEgtspf.pid34372.gtsp.214748616.tour
COMMENT : Length = 214748616
COMMENT : Found by LKH [Keld Helsgaun] Fri Mar  7 03:41:10 2025
TYPE : TOUR
DIMENSION : 130
TOUR_SECTION
1
26
23
24
25
62
59
60
61
122
119
120
121
54
51
52
53
27
28
29
30
7
93
94
91
92
8
129
130
127
128
2
48
49
50
47
6
10
89
90
87
88
109
110
107
108
40
41
42
39
37
38
35
36
115
116
117
118
98
95
96
97
3
66
63
64
65
105
106
103
104
83
84
85
86
33
34
31
32
5
14
11
12
13
19
20
21
22
125
126
123
124
72
73
74
71
78
75
76
77
101
102
99
100
4
16
17
18
15
45
46
43
44
113
114
111
112
9
67
68
69
70
55
56
57
58
82
79
80
81
-1
EOF
